p cnf 9 22
1 2 -3 0
1 -2 3 0
-1 2 3 0
-1 -2 -3 0
1 4 -5 0
1 -4 5 0
-1 4 5 0
-1 -4 -5 0
4 -6 0
-4 6 0
2 7 -8 0
2 -7 8 0
-2 7 8 0
-2 -7 -8 0
5 6 -9 0
5 -6 9 0
-5 6 9 0
-5 -6 -9 0
7 -9 0
-7 9 0
3 8 0
-3 -8 0
